examples/bernasconi/lp/bernasconi.25.3.lp
Minimize 
 obj: +1 z
 Subject to
cobj: -1 z -4 y#0 -4 y#1 -8 y#2 -8 y#3 -8 y#4 -8 y#5 -8 y#6 -8 y#7 -8 y#8 -8 y#9 -8 y#10 -8 y#11 -8 y#12 -8 y#13 -8 y#14 -8 y#15 -8 y#16 -8 y#17 -8 y#18 -8 y#19 -8 y#20 -8 y#21 -8 y#22 -4 y#23 -4 y#24 +8 y#25 +8 y#26 +8 y#27 +8 y#28 +8 y#29 +8 y#30 +8 y#31 +8 y#32 +8 y#33 +8 y#34 +8 y#35 +8 y#36 +8 y#37 +8 y#38 +8 y#39 +8 y#40 +8 y#41 +8 y#42 +8 y#43 +8 y#44 +8 y#45 +8 y#46 +8 y#47 <= 0
cst0: y#0 - x#25 <= 0
cst1: x#25 - y#0 <= 0
cst2: y#1 - x#24 <= 0
cst3: x#24 - y#1 <= 0
cst4: y#2 - x#23 <= 0
cst5: x#23 - y#2 <= 0
cst6: y#3 - x#22 <= 0
cst7: x#22 - y#3 <= 0
cst8: y#4 - x#21 <= 0
cst9: x#21 - y#4 <= 0
cst10: y#5 - x#20 <= 0
cst11: x#20 - y#5 <= 0
cst12: y#6 - x#19 <= 0
cst13: x#19 - y#6 <= 0
cst14: y#7 - x#18 <= 0
cst15: x#18 - y#7 <= 0
cst16: y#8 - x#17 <= 0
cst17: x#17 - y#8 <= 0
cst18: y#9 - x#16 <= 0
cst19: x#16 - y#9 <= 0
cst20: y#10 - x#15 <= 0
cst21: x#15 - y#10 <= 0
cst22: y#11 - x#14 <= 0
cst23: x#14 - y#11 <= 0
cst24: y#12 - x#13 <= 0
cst25: x#13 - y#12 <= 0
cst26: y#13 - x#12 <= 0
cst27: x#12 - y#13 <= 0
cst28: y#14 - x#11 <= 0
cst29: x#11 - y#14 <= 0
cst30: y#15 - x#10 <= 0
cst31: x#10 - y#15 <= 0
cst32: y#16 - x#9 <= 0
cst33: x#9 - y#16 <= 0
cst34: y#17 - x#8 <= 0
cst35: x#8 - y#17 <= 0
cst36: y#18 - x#7 <= 0
cst37: x#7 - y#18 <= 0
cst38: y#19 - x#6 <= 0
cst39: x#6 - y#19 <= 0
cst40: y#20 - x#5 <= 0
cst41: x#5 - y#20 <= 0
cst42: y#21 - x#4 <= 0
cst43: x#4 - y#21 <= 0
cst44: y#22 - x#3 <= 0
cst45: x#3 - y#22 <= 0
cst46: y#23 - x#2 <= 0
cst47: x#2 - y#23 <= 0
cst48: y#24 - x#1 <= 0
cst49: x#1 - y#24 <= 0
cst50: y#25 - x#23 <= 0
cst51: y#25 - x#25 <= 0
cst52: x#23 + x#25 - y#25 <= 1
cst53: y#26 - x#22 <= 0
cst54: y#26 - x#24 <= 0
cst55: x#22 + x#24 - y#26 <= 1
cst56: y#27 - x#21 <= 0
cst57: y#27 - x#23 <= 0
cst58: x#21 + x#23 - y#27 <= 1
cst59: y#28 - x#20 <= 0
cst60: y#28 - x#22 <= 0
cst61: x#20 + x#22 - y#28 <= 1
cst62: y#29 - x#19 <= 0
cst63: y#29 - x#21 <= 0
cst64: x#19 + x#21 - y#29 <= 1
cst65: y#30 - x#18 <= 0
cst66: y#30 - x#20 <= 0
cst67: x#18 + x#20 - y#30 <= 1
cst68: y#31 - x#17 <= 0
cst69: y#31 - x#19 <= 0
cst70: x#17 + x#19 - y#31 <= 1
cst71: y#32 - x#16 <= 0
cst72: y#32 - x#18 <= 0
cst73: x#16 + x#18 - y#32 <= 1
cst74: y#33 - x#15 <= 0
cst75: y#33 - x#17 <= 0
cst76: x#15 + x#17 - y#33 <= 1
cst77: y#34 - x#14 <= 0
cst78: y#34 - x#16 <= 0
cst79: x#14 + x#16 - y#34 <= 1
cst80: y#35 - x#13 <= 0
cst81: y#35 - x#15 <= 0
cst82: x#13 + x#15 - y#35 <= 1
cst83: y#36 - x#12 <= 0
cst84: y#36 - x#14 <= 0
cst85: x#12 + x#14 - y#36 <= 1
cst86: y#37 - x#11 <= 0
cst87: y#37 - x#13 <= 0
cst88: x#11 + x#13 - y#37 <= 1
cst89: y#38 - x#10 <= 0
cst90: y#38 - x#12 <= 0
cst91: x#10 + x#12 - y#38 <= 1
cst92: y#39 - x#9 <= 0
cst93: y#39 - x#11 <= 0
cst94: x#9 + x#11 - y#39 <= 1
cst95: y#40 - x#8 <= 0
cst96: y#40 - x#10 <= 0
cst97: x#8 + x#10 - y#40 <= 1
cst98: y#41 - x#7 <= 0
cst99: y#41 - x#9 <= 0
cst100: x#7 + x#9 - y#41 <= 1
cst101: y#42 - x#6 <= 0
cst102: y#42 - x#8 <= 0
cst103: x#6 + x#8 - y#42 <= 1
cst104: y#43 - x#5 <= 0
cst105: y#43 - x#7 <= 0
cst106: x#5 + x#7 - y#43 <= 1
cst107: y#44 - x#4 <= 0
cst108: y#44 - x#6 <= 0
cst109: x#4 + x#6 - y#44 <= 1
cst110: y#45 - x#3 <= 0
cst111: y#45 - x#5 <= 0
cst112: x#3 + x#5 - y#45 <= 1
cst113: y#46 - x#2 <= 0
cst114: y#46 - x#4 <= 0
cst115: x#2 + x#4 - y#46 <= 1
cst116: y#47 - x#1 <= 0
cst117: y#47 - x#3 <= 0
cst118: x#1 + x#3 - y#47 <= 1
Bounds
z free
Binary
x#1 x#2 x#3 x#4 x#5 x#6 x#7 x#8 x#9 x#10 x#11 x#12 x#13 x#14 x#15 x#16 x#17 x#18 x#19 x#20 x#21 x#22 x#23 x#24 x#25y#0 y#1 y#2 y#3 y#4 y#5 y#6 y#7 y#8 y#9 y#10 y#11 y#12 y#13 y#14 y#15 y#16 y#17 y#18 y#19 y#20 y#21 y#22 y#23 y#24 y#25 y#26 y#27 y#28 y#29 y#30 y#31 y#32 y#33 y#34 y#35 y#36 y#37 y#38 y#39 y#40 y#41 y#42 y#43 y#44 y#45 y#46 y#47
End
