examples/bernasconi/wcnf/bernasconi.25.3.wcnf
p cnf 73 119
c Polynomial has 25 variables and 48 monomials
c Original variables from 1 to 25
c Monomials variables from 26 to 73
c p weight 1 0 0
c p weight -1 0 0
c p weight 2 0 0
c p weight -2 0 0
c p weight 3 0 0
c p weight -3 0 0
c p weight 4 0 0
c p weight -4 0 0
c p weight 5 0 0
c p weight -5 0 0
c p weight 6 0 0
c p weight -6 0 0
c p weight 7 0 0
c p weight -7 0 0
c p weight 8 0 0
c p weight -8 0 0
c p weight 9 0 0
c p weight -9 0 0
c p weight 10 0 0
c p weight -10 0 0
c p weight 11 0 0
c p weight -11 0 0
c p weight 12 0 0
c p weight -12 0 0
c p weight 13 0 0
c p weight -13 0 0
c p weight 14 0 0
c p weight -14 0 0
c p weight 15 0 0
c p weight -15 0 0
c p weight 16 0 0
c p weight -16 0 0
c p weight 17 0 0
c p weight -17 0 0
c p weight 18 0 0
c p weight -18 0 0
c p weight 19 0 0
c p weight -19 0 0
c p weight 20 0 0
c p weight -20 0 0
c p weight 21 0 0
c p weight -21 0 0
c p weight 22 0 0
c p weight -22 0 0
c p weight 23 0 0
c p weight -23 0 0
c p weight 24 0 0
c p weight -24 0 0
c p weight 25 0 0
c p weight -25 0 0
c p weight 26 -4 0
c p weight -26 0 0
26 -25 0
-26 25 0
c p weight 27 -4 0
c p weight -27 0 0
27 -24 0
-27 24 0
c p weight 28 -8 0
c p weight -28 0 0
28 -23 0
-28 23 0
c p weight 29 -8 0
c p weight -29 0 0
29 -22 0
-29 22 0
c p weight 30 -8 0
c p weight -30 0 0
30 -21 0
-30 21 0
c p weight 31 -8 0
c p weight -31 0 0
31 -20 0
-31 20 0
c p weight 32 -8 0
c p weight -32 0 0
32 -19 0
-32 19 0
c p weight 33 -8 0
c p weight -33 0 0
33 -18 0
-33 18 0
c p weight 34 -8 0
c p weight -34 0 0
34 -17 0
-34 17 0
c p weight 35 -8 0
c p weight -35 0 0
35 -16 0
-35 16 0
c p weight 36 -8 0
c p weight -36 0 0
36 -15 0
-36 15 0
c p weight 37 -8 0
c p weight -37 0 0
37 -14 0
-37 14 0
c p weight 38 -8 0
c p weight -38 0 0
38 -13 0
-38 13 0
c p weight 39 -8 0
c p weight -39 0 0
39 -12 0
-39 12 0
c p weight 40 -8 0
c p weight -40 0 0
40 -11 0
-40 11 0
c p weight 41 -8 0
c p weight -41 0 0
41 -10 0
-41 10 0
c p weight 42 -8 0
c p weight -42 0 0
42 -9 0
-42 9 0
c p weight 43 -8 0
c p weight -43 0 0
43 -8 0
-43 8 0
c p weight 44 -8 0
c p weight -44 0 0
44 -7 0
-44 7 0
c p weight 45 -8 0
c p weight -45 0 0
45 -6 0
-45 6 0
c p weight 46 -8 0
c p weight -46 0 0
46 -5 0
-46 5 0
c p weight 47 -8 0
c p weight -47 0 0
47 -4 0
-47 4 0
c p weight 48 -8 0
c p weight -48 0 0
48 -3 0
-48 3 0
c p weight 49 -4 0
c p weight -49 0 0
49 -2 0
-49 2 0
c p weight 50 -4 0
c p weight -50 0 0
50 -1 0
-50 1 0
c p weight 51 8 0
c p weight -51 0 0
51 -23 -25 0
-51 23 0
-51 25 0
c p weight 52 8 0
c p weight -52 0 0
52 -22 -24 0
-52 22 0
-52 24 0
c p weight 53 8 0
c p weight -53 0 0
53 -21 -23 0
-53 21 0
-53 23 0
c p weight 54 8 0
c p weight -54 0 0
54 -20 -22 0
-54 20 0
-54 22 0
c p weight 55 8 0
c p weight -55 0 0
55 -19 -21 0
-55 19 0
-55 21 0
c p weight 56 8 0
c p weight -56 0 0
56 -18 -20 0
-56 18 0
-56 20 0
c p weight 57 8 0
c p weight -57 0 0
57 -17 -19 0
-57 17 0
-57 19 0
c p weight 58 8 0
c p weight -58 0 0
58 -16 -18 0
-58 16 0
-58 18 0
c p weight 59 8 0
c p weight -59 0 0
59 -15 -17 0
-59 15 0
-59 17 0
c p weight 60 8 0
c p weight -60 0 0
60 -14 -16 0
-60 14 0
-60 16 0
c p weight 61 8 0
c p weight -61 0 0
61 -13 -15 0
-61 13 0
-61 15 0
c p weight 62 8 0
c p weight -62 0 0
62 -12 -14 0
-62 12 0
-62 14 0
c p weight 63 8 0
c p weight -63 0 0
63 -11 -13 0
-63 11 0
-63 13 0
c p weight 64 8 0
c p weight -64 0 0
64 -10 -12 0
-64 10 0
-64 12 0
c p weight 65 8 0
c p weight -65 0 0
65 -9 -11 0
-65 9 0
-65 11 0
c p weight 66 8 0
c p weight -66 0 0
66 -8 -10 0
-66 8 0
-66 10 0
c p weight 67 8 0
c p weight -67 0 0
67 -7 -9 0
-67 7 0
-67 9 0
c p weight 68 8 0
c p weight -68 0 0
68 -6 -8 0
-68 6 0
-68 8 0
c p weight 69 8 0
c p weight -69 0 0
69 -5 -7 0
-69 5 0
-69 7 0
c p weight 70 8 0
c p weight -70 0 0
70 -4 -6 0
-70 4 0
-70 6 0
c p weight 71 8 0
c p weight -71 0 0
71 -3 -5 0
-71 3 0
-71 5 0
c p weight 72 8 0
c p weight -72 0 0
72 -2 -4 0
-72 2 0
-72 4 0
c p weight 73 8 0
c p weight -73 0 0
73 -1 -3 0
-73 1 0
-73 3 0
